p cnf 440 3098
1 2 3 4 5 6 7 8 9 10 11 0
12 13 14 15 16 17 18 19 20 21 22 0
23 24 25 26 27 28 29 30 31 32 33 0
34 35 36 37 38 39 40 41 42 43 44 0
45 46 47 48 49 50 51 52 53 54 55 0
56 57 58 59 60 61 62 63 64 65 66 0
67 68 69 70 71 72 73 74 75 76 77 0
78 79 80 81 82 83 84 85 86 87 88 0
89 90 91 92 93 94 95 96 97 98 99 0
100 101 102 103 104 105 106 107 108 109 110 0
111 112 113 114 115 116 117 118 119 120 121 0
122 123 124 125 126 127 128 129 130 131 132 0
133 134 135 136 137 138 139 140 141 142 143 0
144 145 146 147 148 149 150 151 152 153 154 0
155 156 157 158 159 160 161 162 163 164 165 0
166 167 168 169 170 171 172 173 174 175 176 0
177 178 179 180 181 182 183 184 185 186 187 0
188 189 190 191 192 193 194 195 196 197 198 0
199 200 201 202 203 204 205 206 207 208 209 0
210 211 212 213 214 215 216 217 218 219 220 0
221 222 223 224 225 226 227 228 229 230 231 0
232 233 234 235 236 237 238 239 240 241 242 0
243 244 245 246 247 248 249 250 251 252 253 0
254 255 256 257 258 259 260 261 262 263 264 0
265 266 267 268 269 270 271 272 273 274 275 0
276 277 278 279 280 281 282 283 284 285 286 0
287 288 289 290 291 292 293 294 295 296 297 0
298 299 300 301 302 303 304 305 306 307 308 0
309 310 311 312 313 314 315 316 317 318 319 0
320 321 322 323 324 325 326 327 328 329 330 0
331 332 333 334 335 336 337 338 339 340 341 0
342 343 344 345 346 347 348 349 350 351 352 0
353 354 355 356 357 358 359 360 361 362 363 0
364 365 366 367 368 369 370 371 372 373 374 0
375 376 377 378 379 380 381 382 383 384 385 0
386 387 388 389 390 391 392 393 394 395 396 0
397 398 399 400 401 402 403 404 405 406 407 0
408 409 410 411 412 413 414 415 416 417 418 0
419 420 421 422 423 424 425 426 427 428 429 0
430 431 432 433 434 435 436 437 438 439 440 0
-1 -2 0
-1 -3 0
-1 -4 0
-1 -5 0
-1 -6 0
-1 -7 0
-1 -8 0
-1 -9 0
-1 -10 0
-1 -11 0
-2 -3 0
-2 -4 0
-2 -5 0
-2 -6 0
-2 -7 0
-2 -8 0
-2 -9 0
-2 -10 0
-2 -11 0
-3 -4 0
-3 -5 0
-3 -6 0
-3 -7 0
-3 -8 0
-3 -9 0
-3 -10 0
-3 -11 0
-4 -5 0
-4 -6 0
-4 -7 0
-4 -8 0
-4 -9 0
-4 -10 0
-4 -11 0
-5 -6 0
-5 -7 0
-5 -8 0
-5 -9 0
-5 -10 0
-5 -11 0
-6 -7 0
-6 -8 0
-6 -9 0
-6 -10 0
-6 -11 0
-7 -8 0
-7 -9 0
-7 -10 0
-7 -11 0
-8 -9 0
-8 -10 0
-8 -11 0
-9 -10 0
-9 -11 0
-10 -11 0
-12 -13 0
-12 -14 0
-12 -15 0
-12 -16 0
-12 -17 0
-12 -18 0
-12 -19 0
-12 -20 0
-12 -21 0
-12 -22 0
-13 -14 0
-13 -15 0
-13 -16 0
-13 -17 0
-13 -18 0
-13 -19 0
-13 -20 0
-13 -21 0
-13 -22 0
-14 -15 0
-14 -16 0
-14 -17 0
-14 -18 0
-14 -19 0
-14 -20 0
-14 -21 0
-14 -22 0
-15 -16 0
-15 -17 0
-15 -18 0
-15 -19 0
-15 -20 0
-15 -21 0
-15 -22 0
-16 -17 0
-16 -18 0
-16 -19 0
-16 -20 0
-16 -21 0
-16 -22 0
-17 -18 0
-17 -19 0
-17 -20 0
-17 -21 0
-17 -22 0
-18 -19 0
-18 -20 0
-18 -21 0
-18 -22 0
-19 -20 0
-19 -21 0
-19 -22 0
-20 -21 0
-20 -22 0
-21 -22 0
-23 -24 0
-23 -25 0
-23 -26 0
-23 -27 0
-23 -28 0
-23 -29 0
-23 -30 0
-23 -31 0
-23 -32 0
-23 -33 0
-24 -25 0
-24 -26 0
-24 -27 0
-24 -28 0
-24 -29 0
-24 -30 0
-24 -31 0
-24 -32 0
-24 -33 0
-25 -26 0
-25 -27 0
-25 -28 0
-25 -29 0
-25 -30 0
-25 -31 0
-25 -32 0
-25 -33 0
-26 -27 0
-26 -28 0
-26 -29 0
-26 -30 0
-26 -31 0
-26 -32 0
-26 -33 0
-27 -28 0
-27 -29 0
-27 -30 0
-27 -31 0
-27 -32 0
-27 -33 0
-28 -29 0
-28 -30 0
-28 -31 0
-28 -32 0
-28 -33 0
-29 -30 0
-29 -31 0
-29 -32 0
-29 -33 0
-30 -31 0
-30 -32 0
-30 -33 0
-31 -32 0
-31 -33 0
-32 -33 0
-34 -35 0
-34 -36 0
-34 -37 0
-34 -38 0
-34 -39 0
-34 -40 0
-34 -41 0
-34 -42 0
-34 -43 0
-34 -44 0
-35 -36 0
-35 -37 0
-35 -38 0
-35 -39 0
-35 -40 0
-35 -41 0
-35 -42 0
-35 -43 0
-35 -44 0
-36 -37 0
-36 -38 0
-36 -39 0
-36 -40 0
-36 -41 0
-36 -42 0
-36 -43 0
-36 -44 0
-37 -38 0
-37 -39 0
-37 -40 0
-37 -41 0
-37 -42 0
-37 -43 0
-37 -44 0
-38 -39 0
-38 -40 0
-38 -41 0
-38 -42 0
-38 -43 0
-38 -44 0
-39 -40 0
-39 -41 0
-39 -42 0
-39 -43 0
-39 -44 0
-40 -41 0
-40 -42 0
-40 -43 0
-40 -44 0
-41 -42 0
-41 -43 0
-41 -44 0
-42 -43 0
-42 -44 0
-43 -44 0
-45 -46 0
-45 -47 0
-45 -48 0
-45 -49 0
-45 -50 0
-45 -51 0
-45 -52 0
-45 -53 0
-45 -54 0
-45 -55 0
-46 -47 0
-46 -48 0
-46 -49 0
-46 -50 0
-46 -51 0
-46 -52 0
-46 -53 0
-46 -54 0
-46 -55 0
-47 -48 0
-47 -49 0
-47 -50 0
-47 -51 0
-47 -52 0
-47 -53 0
-47 -54 0
-47 -55 0
-48 -49 0
-48 -50 0
-48 -51 0
-48 -52 0
-48 -53 0
-48 -54 0
-48 -55 0
-49 -50 0
-49 -51 0
-49 -52 0
-49 -53 0
-49 -54 0
-49 -55 0
-50 -51 0
-50 -52 0
-50 -53 0
-50 -54 0
-50 -55 0
-51 -52 0
-51 -53 0
-51 -54 0
-51 -55 0
-52 -53 0
-52 -54 0
-52 -55 0
-53 -54 0
-53 -55 0
-54 -55 0
-56 -57 0
-56 -58 0
-56 -59 0
-56 -60 0
-56 -61 0
-56 -62 0
-56 -63 0
-56 -64 0
-56 -65 0
-56 -66 0
-57 -58 0
-57 -59 0
-57 -60 0
-57 -61 0
-57 -62 0
-57 -63 0
-57 -64 0
-57 -65 0
-57 -66 0
-58 -59 0
-58 -60 0
-58 -61 0
-58 -62 0
-58 -63 0
-58 -64 0
-58 -65 0
-58 -66 0
-59 -60 0
-59 -61 0
-59 -62 0
-59 -63 0
-59 -64 0
-59 -65 0
-59 -66 0
-60 -61 0
-60 -62 0
-60 -63 0
-60 -64 0
-60 -65 0
-60 -66 0
-61 -62 0
-61 -63 0
-61 -64 0
-61 -65 0
-61 -66 0
-62 -63 0
-62 -64 0
-62 -65 0
-62 -66 0
-63 -64 0
-63 -65 0
-63 -66 0
-64 -65 0
-64 -66 0
-65 -66 0
-67 -68 0
-67 -69 0
-67 -70 0
-67 -71 0
-67 -72 0
-67 -73 0
-67 -74 0
-67 -75 0
-67 -76 0
-67 -77 0
-68 -69 0
-68 -70 0
-68 -71 0
-68 -72 0
-68 -73 0
-68 -74 0
-68 -75 0
-68 -76 0
-68 -77 0
-69 -70 0
-69 -71 0
-69 -72 0
-69 -73 0
-69 -74 0
-69 -75 0
-69 -76 0
-69 -77 0
-70 -71 0
-70 -72 0
-70 -73 0
-70 -74 0
-70 -75 0
-70 -76 0
-70 -77 0
-71 -72 0
-71 -73 0
-71 -74 0
-71 -75 0
-71 -76 0
-71 -77 0
-72 -73 0
-72 -74 0
-72 -75 0
-72 -76 0
-72 -77 0
-73 -74 0
-73 -75 0
-73 -76 0
-73 -77 0
-74 -75 0
-74 -76 0
-74 -77 0
-75 -76 0
-75 -77 0
-76 -77 0
-78 -79 0
-78 -80 0
-78 -81 0
-78 -82 0
-78 -83 0
-78 -84 0
-78 -85 0
-78 -86 0
-78 -87 0
-78 -88 0
-79 -80 0
-79 -81 0
-79 -82 0
-79 -83 0
-79 -84 0
-79 -85 0
-79 -86 0
-79 -87 0
-79 -88 0
-80 -81 0
-80 -82 0
-80 -83 0
-80 -84 0
-80 -85 0
-80 -86 0
-80 -87 0
-80 -88 0
-81 -82 0
-81 -83 0
-81 -84 0
-81 -85 0
-81 -86 0
-81 -87 0
-81 -88 0
-82 -83 0
-82 -84 0
-82 -85 0
-82 -86 0
-82 -87 0
-82 -88 0
-83 -84 0
-83 -85 0
-83 -86 0
-83 -87 0
-83 -88 0
-84 -85 0
-84 -86 0
-84 -87 0
-84 -88 0
-85 -86 0
-85 -87 0
-85 -88 0
-86 -87 0
-86 -88 0
-87 -88 0
-89 -90 0
-89 -91 0
-89 -92 0
-89 -93 0
-89 -94 0
-89 -95 0
-89 -96 0
-89 -97 0
-89 -98 0
-89 -99 0
-90 -91 0
-90 -92 0
-90 -93 0
-90 -94 0
-90 -95 0
-90 -96 0
-90 -97 0
-90 -98 0
-90 -99 0
-91 -92 0
-91 -93 0
-91 -94 0
-91 -95 0
-91 -96 0
-91 -97 0
-91 -98 0
-91 -99 0
-92 -93 0
-92 -94 0
-92 -95 0
-92 -96 0
-92 -97 0
-92 -98 0
-92 -99 0
-93 -94 0
-93 -95 0
-93 -96 0
-93 -97 0
-93 -98 0
-93 -99 0
-94 -95 0
-94 -96 0
-94 -97 0
-94 -98 0
-94 -99 0
-95 -96 0
-95 -97 0
-95 -98 0
-95 -99 0
-96 -97 0
-96 -98 0
-96 -99 0
-97 -98 0
-97 -99 0
-98 -99 0
-100 -101 0
-100 -102 0
-100 -103 0
-100 -104 0
-100 -105 0
-100 -106 0
-100 -107 0
-100 -108 0
-100 -109 0
-100 -110 0
-101 -102 0
-101 -103 0
-101 -104 0
-101 -105 0
-101 -106 0
-101 -107 0
-101 -108 0
-101 -109 0
-101 -110 0
-102 -103 0
-102 -104 0
-102 -105 0
-102 -106 0
-102 -107 0
-102 -108 0
-102 -109 0
-102 -110 0
-103 -104 0
-103 -105 0
-103 -106 0
-103 -107 0
-103 -108 0
-103 -109 0
-103 -110 0
-104 -105 0
-104 -106 0
-104 -107 0
-104 -108 0
-104 -109 0
-104 -110 0
-105 -106 0
-105 -107 0
-105 -108 0
-105 -109 0
-105 -110 0
-106 -107 0
-106 -108 0
-106 -109 0
-106 -110 0
-107 -108 0
-107 -109 0
-107 -110 0
-108 -109 0
-108 -110 0
-109 -110 0
-111 -112 0
-111 -113 0
-111 -114 0
-111 -115 0
-111 -116 0
-111 -117 0
-111 -118 0
-111 -119 0
-111 -120 0
-111 -121 0
-112 -113 0
-112 -114 0
-112 -115 0
-112 -116 0
-112 -117 0
-112 -118 0
-112 -119 0
-112 -120 0
-112 -121 0
-113 -114 0
-113 -115 0
-113 -116 0
-113 -117 0
-113 -118 0
-113 -119 0
-113 -120 0
-113 -121 0
-114 -115 0
-114 -116 0
-114 -117 0
-114 -118 0
-114 -119 0
-114 -120 0
-114 -121 0
-115 -116 0
-115 -117 0
-115 -118 0
-115 -119 0
-115 -120 0
-115 -121 0
-116 -117 0
-116 -118 0
-116 -119 0
-116 -120 0
-116 -121 0
-117 -118 0
-117 -119 0
-117 -120 0
-117 -121 0
-118 -119 0
-118 -120 0
-118 -121 0
-119 -120 0
-119 -121 0
-120 -121 0
-122 -123 0
-122 -124 0
-122 -125 0
-122 -126 0
-122 -127 0
-122 -128 0
-122 -129 0
-122 -130 0
-122 -131 0
-122 -132 0
-123 -124 0
-123 -125 0
-123 -126 0
-123 -127 0
-123 -128 0
-123 -129 0
-123 -130 0
-123 -131 0
-123 -132 0
-124 -125 0
-124 -126 0
-124 -127 0
-124 -128 0
-124 -129 0
-124 -130 0
-124 -131 0
-124 -132 0
-125 -126 0
-125 -127 0
-125 -128 0
-125 -129 0
-125 -130 0
-125 -131 0
-125 -132 0
-126 -127 0
-126 -128 0
-126 -129 0
-126 -130 0
-126 -131 0
-126 -132 0
-127 -128 0
-127 -129 0
-127 -130 0
-127 -131 0
-127 -132 0
-128 -129 0
-128 -130 0
-128 -131 0
-128 -132 0
-129 -130 0
-129 -131 0
-129 -132 0
-130 -131 0
-130 -132 0
-131 -132 0
-133 -134 0
-133 -135 0
-133 -136 0
-133 -137 0
-133 -138 0
-133 -139 0
-133 -140 0
-133 -141 0
-133 -142 0
-133 -143 0
-134 -135 0
-134 -136 0
-134 -137 0
-134 -138 0
-134 -139 0
-134 -140 0
-134 -141 0
-134 -142 0
-134 -143 0
-135 -136 0
-135 -137 0
-135 -138 0
-135 -139 0
-135 -140 0
-135 -141 0
-135 -142 0
-135 -143 0
-136 -137 0
-136 -138 0
-136 -139 0
-136 -140 0
-136 -141 0
-136 -142 0
-136 -143 0
-137 -138 0
-137 -139 0
-137 -140 0
-137 -141 0
-137 -142 0
-137 -143 0
-138 -139 0
-138 -140 0
-138 -141 0
-138 -142 0
-138 -143 0
-139 -140 0
-139 -141 0
-139 -142 0
-139 -143 0
-140 -141 0
-140 -142 0
-140 -143 0
-141 -142 0
-141 -143 0
-142 -143 0
-144 -145 0
-144 -146 0
-144 -147 0
-144 -148 0
-144 -149 0
-144 -150 0
-144 -151 0
-144 -152 0
-144 -153 0
-144 -154 0
-145 -146 0
-145 -147 0
-145 -148 0
-145 -149 0
-145 -150 0
-145 -151 0
-145 -152 0
-145 -153 0
-145 -154 0
-146 -147 0
-146 -148 0
-146 -149 0
-146 -150 0
-146 -151 0
-146 -152 0
-146 -153 0
-146 -154 0
-147 -148 0
-147 -149 0
-147 -150 0
-147 -151 0
-147 -152 0
-147 -153 0
-147 -154 0
-148 -149 0
-148 -150 0
-148 -151 0
-148 -152 0
-148 -153 0
-148 -154 0
-149 -150 0
-149 -151 0
-149 -152 0
-149 -153 0
-149 -154 0
-150 -151 0
-150 -152 0
-150 -153 0
-150 -154 0
-151 -152 0
-151 -153 0
-151 -154 0
-152 -153 0
-152 -154 0
-153 -154 0
-155 -156 0
-155 -157 0
-155 -158 0
-155 -159 0
-155 -160 0
-155 -161 0
-155 -162 0
-155 -163 0
-155 -164 0
-155 -165 0
-156 -157 0
-156 -158 0
-156 -159 0
-156 -160 0
-156 -161 0
-156 -162 0
-156 -163 0
-156 -164 0
-156 -165 0
-157 -158 0
-157 -159 0
-157 -160 0
-157 -161 0
-157 -162 0
-157 -163 0
-157 -164 0
-157 -165 0
-158 -159 0
-158 -160 0
-158 -161 0
-158 -162 0
-158 -163 0
-158 -164 0
-158 -165 0
-159 -160 0
-159 -161 0
-159 -162 0
-159 -163 0
-159 -164 0
-159 -165 0
-160 -161 0
-160 -162 0
-160 -163 0
-160 -164 0
-160 -165 0
-161 -162 0
-161 -163 0
-161 -164 0
-161 -165 0
-162 -163 0
-162 -164 0
-162 -165 0
-163 -164 0
-163 -165 0
-164 -165 0
-166 -167 0
-166 -168 0
-166 -169 0
-166 -170 0
-166 -171 0
-166 -172 0
-166 -173 0
-166 -174 0
-166 -175 0
-166 -176 0
-167 -168 0
-167 -169 0
-167 -170 0
-167 -171 0
-167 -172 0
-167 -173 0
-167 -174 0
-167 -175 0
-167 -176 0
-168 -169 0
-168 -170 0
-168 -171 0
-168 -172 0
-168 -173 0
-168 -174 0
-168 -175 0
-168 -176 0
-169 -170 0
-169 -171 0
-169 -172 0
-169 -173 0
-169 -174 0
-169 -175 0
-169 -176 0
-170 -171 0
-170 -172 0
-170 -173 0
-170 -174 0
-170 -175 0
-170 -176 0
-171 -172 0
-171 -173 0
-171 -174 0
-171 -175 0
-171 -176 0
-172 -173 0
-172 -174 0
-172 -175 0
-172 -176 0
-173 -174 0
-173 -175 0
-173 -176 0
-174 -175 0
-174 -176 0
-175 -176 0
-177 -178 0
-177 -179 0
-177 -180 0
-177 -181 0
-177 -182 0
-177 -183 0
-177 -184 0
-177 -185 0
-177 -186 0
-177 -187 0
-178 -179 0
-178 -180 0
-178 -181 0
-178 -182 0
-178 -183 0
-178 -184 0
-178 -185 0
-178 -186 0
-178 -187 0
-179 -180 0
-179 -181 0
-179 -182 0
-179 -183 0
-179 -184 0
-179 -185 0
-179 -186 0
-179 -187 0
-180 -181 0
-180 -182 0
-180 -183 0
-180 -184 0
-180 -185 0
-180 -186 0
-180 -187 0
-181 -182 0
-181 -183 0
-181 -184 0
-181 -185 0
-181 -186 0
-181 -187 0
-182 -183 0
-182 -184 0
-182 -185 0
-182 -186 0
-182 -187 0
-183 -184 0
-183 -185 0
-183 -186 0
-183 -187 0
-184 -185 0
-184 -186 0
-184 -187 0
-185 -186 0
-185 -187 0
-186 -187 0
-188 -189 0
-188 -190 0
-188 -191 0
-188 -192 0
-188 -193 0
-188 -194 0
-188 -195 0
-188 -196 0
-188 -197 0
-188 -198 0
-189 -190 0
-189 -191 0
-189 -192 0
-189 -193 0
-189 -194 0
-189 -195 0
-189 -196 0
-189 -197 0
-189 -198 0
-190 -191 0
-190 -192 0
-190 -193 0
-190 -194 0
-190 -195 0
-190 -196 0
-190 -197 0
-190 -198 0
-191 -192 0
-191 -193 0
-191 -194 0
-191 -195 0
-191 -196 0
-191 -197 0
-191 -198 0
-192 -193 0
-192 -194 0
-192 -195 0
-192 -196 0
-192 -197 0
-192 -198 0
-193 -194 0
-193 -195 0
-193 -196 0
-193 -197 0
-193 -198 0
-194 -195 0
-194 -196 0
-194 -197 0
-194 -198 0
-195 -196 0
-195 -197 0
-195 -198 0
-196 -197 0
-196 -198 0
-197 -198 0
-199 -200 0
-199 -201 0
-199 -202 0
-199 -203 0
-199 -204 0
-199 -205 0
-199 -206 0
-199 -207 0
-199 -208 0
-199 -209 0
-200 -201 0
-200 -202 0
-200 -203 0
-200 -204 0
-200 -205 0
-200 -206 0
-200 -207 0
-200 -208 0
-200 -209 0
-201 -202 0
-201 -203 0
-201 -204 0
-201 -205 0
-201 -206 0
-201 -207 0
-201 -208 0
-201 -209 0
-202 -203 0
-202 -204 0
-202 -205 0
-202 -206 0
-202 -207 0
-202 -208 0
-202 -209 0
-203 -204 0
-203 -205 0
-203 -206 0
-203 -207 0
-203 -208 0
-203 -209 0
-204 -205 0
-204 -206 0
-204 -207 0
-204 -208 0
-204 -209 0
-205 -206 0
-205 -207 0
-205 -208 0
-205 -209 0
-206 -207 0
-206 -208 0
-206 -209 0
-207 -208 0
-207 -209 0
-208 -209 0
-210 -211 0
-210 -212 0
-210 -213 0
-210 -214 0
-210 -215 0
-210 -216 0
-210 -217 0
-210 -218 0
-210 -219 0
-210 -220 0
-211 -212 0
-211 -213 0
-211 -214 0
-211 -215 0
-211 -216 0
-211 -217 0
-211 -218 0
-211 -219 0
-211 -220 0
-212 -213 0
-212 -214 0
-212 -215 0
-212 -216 0
-212 -217 0
-212 -218 0
-212 -219 0
-212 -220 0
-213 -214 0
-213 -215 0
-213 -216 0
-213 -217 0
-213 -218 0
-213 -219 0
-213 -220 0
-214 -215 0
-214 -216 0
-214 -217 0
-214 -218 0
-214 -219 0
-214 -220 0
-215 -216 0
-215 -217 0
-215 -218 0
-215 -219 0
-215 -220 0
-216 -217 0
-216 -218 0
-216 -219 0
-216 -220 0
-217 -218 0
-217 -219 0
-217 -220 0
-218 -219 0
-218 -220 0
-219 -220 0
-221 -222 0
-221 -223 0
-221 -224 0
-221 -225 0
-221 -226 0
-221 -227 0
-221 -228 0
-221 -229 0
-221 -230 0
-221 -231 0
-222 -223 0
-222 -224 0
-222 -225 0
-222 -226 0
-222 -227 0
-222 -228 0
-222 -229 0
-222 -230 0
-222 -231 0
-223 -224 0
-223 -225 0
-223 -226 0
-223 -227 0
-223 -228 0
-223 -229 0
-223 -230 0
-223 -231 0
-224 -225 0
-224 -226 0
-224 -227 0
-224 -228 0
-224 -229 0
-224 -230 0
-224 -231 0
-225 -226 0
-225 -227 0
-225 -228 0
-225 -229 0
-225 -230 0
-225 -231 0
-226 -227 0
-226 -228 0
-226 -229 0
-226 -230 0
-226 -231 0
-227 -228 0
-227 -229 0
-227 -230 0
-227 -231 0
-228 -229 0
-228 -230 0
-228 -231 0
-229 -230 0
-229 -231 0
-230 -231 0
-232 -233 0
-232 -234 0
-232 -235 0
-232 -236 0
-232 -237 0
-232 -238 0
-232 -239 0
-232 -240 0
-232 -241 0
-232 -242 0
-233 -234 0
-233 -235 0
-233 -236 0
-233 -237 0
-233 -238 0
-233 -239 0
-233 -240 0
-233 -241 0
-233 -242 0
-234 -235 0
-234 -236 0
-234 -237 0
-234 -238 0
-234 -239 0
-234 -240 0
-234 -241 0
-234 -242 0
-235 -236 0
-235 -237 0
-235 -238 0
-235 -239 0
-235 -240 0
-235 -241 0
-235 -242 0
-236 -237 0
-236 -238 0
-236 -239 0
-236 -240 0
-236 -241 0
-236 -242 0
-237 -238 0
-237 -239 0
-237 -240 0
-237 -241 0
-237 -242 0
-238 -239 0
-238 -240 0
-238 -241 0
-238 -242 0
-239 -240 0
-239 -241 0
-239 -242 0
-240 -241 0
-240 -242 0
-241 -242 0
-243 -244 0
-243 -245 0
-243 -246 0
-243 -247 0
-243 -248 0
-243 -249 0
-243 -250 0
-243 -251 0
-243 -252 0
-243 -253 0
-244 -245 0
-244 -246 0
-244 -247 0
-244 -248 0
-244 -249 0
-244 -250 0
-244 -251 0
-244 -252 0
-244 -253 0
-245 -246 0
-245 -247 0
-245 -248 0
-245 -249 0
-245 -250 0
-245 -251 0
-245 -252 0
-245 -253 0
-246 -247 0
-246 -248 0
-246 -249 0
-246 -250 0
-246 -251 0
-246 -252 0
-246 -253 0
-247 -248 0
-247 -249 0
-247 -250 0
-247 -251 0
-247 -252 0
-247 -253 0
-248 -249 0
-248 -250 0
-248 -251 0
-248 -252 0
-248 -253 0
-249 -250 0
-249 -251 0
-249 -252 0
-249 -253 0
-250 -251 0
-250 -252 0
-250 -253 0
-251 -252 0
-251 -253 0
-252 -253 0
-254 -255 0
-254 -256 0
-254 -257 0
-254 -258 0
-254 -259 0
-254 -260 0
-254 -261 0
-254 -262 0
-254 -263 0
-254 -264 0
-255 -256 0
-255 -257 0
-255 -258 0
-255 -259 0
-255 -260 0
-255 -261 0
-255 -262 0
-255 -263 0
-255 -264 0
-256 -257 0
-256 -258 0
-256 -259 0
-256 -260 0
-256 -261 0
-256 -262 0
-256 -263 0
-256 -264 0
-257 -258 0
-257 -259 0
-257 -260 0
-257 -261 0
-257 -262 0
-257 -263 0
-257 -264 0
-258 -259 0
-258 -260 0
-258 -261 0
-258 -262 0
-258 -263 0
-258 -264 0
-259 -260 0
-259 -261 0
-259 -262 0
-259 -263 0
-259 -264 0
-260 -261 0
-260 -262 0
-260 -263 0
-260 -264 0
-261 -262 0
-261 -263 0
-261 -264 0
-262 -263 0
-262 -264 0
-263 -264 0
-265 -266 0
-265 -267 0
-265 -268 0
-265 -269 0
-265 -270 0
-265 -271 0
-265 -272 0
-265 -273 0
-265 -274 0
-265 -275 0
-266 -267 0
-266 -268 0
-266 -269 0
-266 -270 0
-266 -271 0
-266 -272 0
-266 -273 0
-266 -274 0
-266 -275 0
-267 -268 0
-267 -269 0
-267 -270 0
-267 -271 0
-267 -272 0
-267 -273 0
-267 -274 0
-267 -275 0
-268 -269 0
-268 -270 0
-268 -271 0
-268 -272 0
-268 -273 0
-268 -274 0
-268 -275 0
-269 -270 0
-269 -271 0
-269 -272 0
-269 -273 0
-269 -274 0
-269 -275 0
-270 -271 0
-270 -272 0
-270 -273 0
-270 -274 0
-270 -275 0
-271 -272 0
-271 -273 0
-271 -274 0
-271 -275 0
-272 -273 0
-272 -274 0
-272 -275 0
-273 -274 0
-273 -275 0
-274 -275 0
-276 -277 0
-276 -278 0
-276 -279 0
-276 -280 0
-276 -281 0
-276 -282 0
-276 -283 0
-276 -284 0
-276 -285 0
-276 -286 0
-277 -278 0
-277 -279 0
-277 -280 0
-277 -281 0
-277 -282 0
-277 -283 0
-277 -284 0
-277 -285 0
-277 -286 0
-278 -279 0
-278 -280 0
-278 -281 0
-278 -282 0
-278 -283 0
-278 -284 0
-278 -285 0
-278 -286 0
-279 -280 0
-279 -281 0
-279 -282 0
-279 -283 0
-279 -284 0
-279 -285 0
-279 -286 0
-280 -281 0
-280 -282 0
-280 -283 0
-280 -284 0
-280 -285 0
-280 -286 0
-281 -282 0
-281 -283 0
-281 -284 0
-281 -285 0
-281 -286 0
-282 -283 0
-282 -284 0
-282 -285 0
-282 -286 0
-283 -284 0
-283 -285 0
-283 -286 0
-284 -285 0
-284 -286 0
-285 -286 0
-287 -288 0
-287 -289 0
-287 -290 0
-287 -291 0
-287 -292 0
-287 -293 0
-287 -294 0
-287 -295 0
-287 -296 0
-287 -297 0
-288 -289 0
-288 -290 0
-288 -291 0
-288 -292 0
-288 -293 0
-288 -294 0
-288 -295 0
-288 -296 0
-288 -297 0
-289 -290 0
-289 -291 0
-289 -292 0
-289 -293 0
-289 -294 0
-289 -295 0
-289 -296 0
-289 -297 0
-290 -291 0
-290 -292 0
-290 -293 0
-290 -294 0
-290 -295 0
-290 -296 0
-290 -297 0
-291 -292 0
-291 -293 0
-291 -294 0
-291 -295 0
-291 -296 0
-291 -297 0
-292 -293 0
-292 -294 0
-292 -295 0
-292 -296 0
-292 -297 0
-293 -294 0
-293 -295 0
-293 -296 0
-293 -297 0
-294 -295 0
-294 -296 0
-294 -297 0
-295 -296 0
-295 -297 0
-296 -297 0
-298 -299 0
-298 -300 0
-298 -301 0
-298 -302 0
-298 -303 0
-298 -304 0
-298 -305 0
-298 -306 0
-298 -307 0
-298 -308 0
-299 -300 0
-299 -301 0
-299 -302 0
-299 -303 0
-299 -304 0
-299 -305 0
-299 -306 0
-299 -307 0
-299 -308 0
-300 -301 0
-300 -302 0
-300 -303 0
-300 -304 0
-300 -305 0
-300 -306 0
-300 -307 0
-300 -308 0
-301 -302 0
-301 -303 0
-301 -304 0
-301 -305 0
-301 -306 0
-301 -307 0
-301 -308 0
-302 -303 0
-302 -304 0
-302 -305 0
-302 -306 0
-302 -307 0
-302 -308 0
-303 -304 0
-303 -305 0
-303 -306 0
-303 -307 0
-303 -308 0
-304 -305 0
-304 -306 0
-304 -307 0
-304 -308 0
-305 -306 0
-305 -307 0
-305 -308 0
-306 -307 0
-306 -308 0
-307 -308 0
-309 -310 0
-309 -311 0
-309 -312 0
-309 -313 0
-309 -314 0
-309 -315 0
-309 -316 0
-309 -317 0
-309 -318 0
-309 -319 0
-310 -311 0
-310 -312 0
-310 -313 0
-310 -314 0
-310 -315 0
-310 -316 0
-310 -317 0
-310 -318 0
-310 -319 0
-311 -312 0
-311 -313 0
-311 -314 0
-311 -315 0
-311 -316 0
-311 -317 0
-311 -318 0
-311 -319 0
-312 -313 0
-312 -314 0
-312 -315 0
-312 -316 0
-312 -317 0
-312 -318 0
-312 -319 0
-313 -314 0
-313 -315 0
-313 -316 0
-313 -317 0
-313 -318 0
-313 -319 0
-314 -315 0
-314 -316 0
-314 -317 0
-314 -318 0
-314 -319 0
-315 -316 0
-315 -317 0
-315 -318 0
-315 -319 0
-316 -317 0
-316 -318 0
-316 -319 0
-317 -318 0
-317 -319 0
-318 -319 0
-320 -321 0
-320 -322 0
-320 -323 0
-320 -324 0
-320 -325 0
-320 -326 0
-320 -327 0
-320 -328 0
-320 -329 0
-320 -330 0
-321 -322 0
-321 -323 0
-321 -324 0
-321 -325 0
-321 -326 0
-321 -327 0
-321 -328 0
-321 -329 0
-321 -330 0
-322 -323 0
-322 -324 0
-322 -325 0
-322 -326 0
-322 -327 0
-322 -328 0
-322 -329 0
-322 -330 0
-323 -324 0
-323 -325 0
-323 -326 0
-323 -327 0
-323 -328 0
-323 -329 0
-323 -330 0
-324 -325 0
-324 -326 0
-324 -327 0
-324 -328 0
-324 -329 0
-324 -330 0
-325 -326 0
-325 -327 0
-325 -328 0
-325 -329 0
-325 -330 0
-326 -327 0
-326 -328 0
-326 -329 0
-326 -330 0
-327 -328 0
-327 -329 0
-327 -330 0
-328 -329 0
-328 -330 0
-329 -330 0
-331 -332 0
-331 -333 0
-331 -334 0
-331 -335 0
-331 -336 0
-331 -337 0
-331 -338 0
-331 -339 0
-331 -340 0
-331 -341 0
-332 -333 0
-332 -334 0
-332 -335 0
-332 -336 0
-332 -337 0
-332 -338 0
-332 -339 0
-332 -340 0
-332 -341 0
-333 -334 0
-333 -335 0
-333 -336 0
-333 -337 0
-333 -338 0
-333 -339 0
-333 -340 0
-333 -341 0
-334 -335 0
-334 -336 0
-334 -337 0
-334 -338 0
-334 -339 0
-334 -340 0
-334 -341 0
-335 -336 0
-335 -337 0
-335 -338 0
-335 -339 0
-335 -340 0
-335 -341 0
-336 -337 0
-336 -338 0
-336 -339 0
-336 -340 0
-336 -341 0
-337 -338 0
-337 -339 0
-337 -340 0
-337 -341 0
-338 -339 0
-338 -340 0
-338 -341 0
-339 -340 0
-339 -341 0
-340 -341 0
-342 -343 0
-342 -344 0
-342 -345 0
-342 -346 0
-342 -347 0
-342 -348 0
-342 -349 0
-342 -350 0
-342 -351 0
-342 -352 0
-343 -344 0
-343 -345 0
-343 -346 0
-343 -347 0
-343 -348 0
-343 -349 0
-343 -350 0
-343 -351 0
-343 -352 0
-344 -345 0
-344 -346 0
-344 -347 0
-344 -348 0
-344 -349 0
-344 -350 0
-344 -351 0
-344 -352 0
-345 -346 0
-345 -347 0
-345 -348 0
-345 -349 0
-345 -350 0
-345 -351 0
-345 -352 0
-346 -347 0
-346 -348 0
-346 -349 0
-346 -350 0
-346 -351 0
-346 -352 0
-347 -348 0
-347 -349 0
-347 -350 0
-347 -351 0
-347 -352 0
-348 -349 0
-348 -350 0
-348 -351 0
-348 -352 0
-349 -350 0
-349 -351 0
-349 -352 0
-350 -351 0
-350 -352 0
-351 -352 0
-353 -354 0
-353 -355 0
-353 -356 0
-353 -357 0
-353 -358 0
-353 -359 0
-353 -360 0
-353 -361 0
-353 -362 0
-353 -363 0
-354 -355 0
-354 -356 0
-354 -357 0
-354 -358 0
-354 -359 0
-354 -360 0
-354 -361 0
-354 -362 0
-354 -363 0
-355 -356 0
-355 -357 0
-355 -358 0
-355 -359 0
-355 -360 0
-355 -361 0
-355 -362 0
-355 -363 0
-356 -357 0
-356 -358 0
-356 -359 0
-356 -360 0
-356 -361 0
-356 -362 0
-356 -363 0
-357 -358 0
-357 -359 0
-357 -360 0
-357 -361 0
-357 -362 0
-357 -363 0
-358 -359 0
-358 -360 0
-358 -361 0
-358 -362 0
-358 -363 0
-359 -360 0
-359 -361 0
-359 -362 0
-359 -363 0
-360 -361 0
-360 -362 0
-360 -363 0
-361 -362 0
-361 -363 0
-362 -363 0
-364 -365 0
-364 -366 0
-364 -367 0
-364 -368 0
-364 -369 0
-364 -370 0
-364 -371 0
-364 -372 0
-364 -373 0
-364 -374 0
-365 -366 0
-365 -367 0
-365 -368 0
-365 -369 0
-365 -370 0
-365 -371 0
-365 -372 0
-365 -373 0
-365 -374 0
-366 -367 0
-366 -368 0
-366 -369 0
-366 -370 0
-366 -371 0
-366 -372 0
-366 -373 0
-366 -374 0
-367 -368 0
-367 -369 0
-367 -370 0
-367 -371 0
-367 -372 0
-367 -373 0
-367 -374 0
-368 -369 0
-368 -370 0
-368 -371 0
-368 -372 0
-368 -373 0
-368 -374 0
-369 -370 0
-369 -371 0
-369 -372 0
-369 -373 0
-369 -374 0
-370 -371 0
-370 -372 0
-370 -373 0
-370 -374 0
-371 -372 0
-371 -373 0
-371 -374 0
-372 -373 0
-372 -374 0
-373 -374 0
-375 -376 0
-375 -377 0
-375 -378 0
-375 -379 0
-375 -380 0
-375 -381 0
-375 -382 0
-375 -383 0
-375 -384 0
-375 -385 0
-376 -377 0
-376 -378 0
-376 -379 0
-376 -380 0
-376 -381 0
-376 -382 0
-376 -383 0
-376 -384 0
-376 -385 0
-377 -378 0
-377 -379 0
-377 -380 0
-377 -381 0
-377 -382 0
-377 -383 0
-377 -384 0
-377 -385 0
-378 -379 0
-378 -380 0
-378 -381 0
-378 -382 0
-378 -383 0
-378 -384 0
-378 -385 0
-379 -380 0
-379 -381 0
-379 -382 0
-379 -383 0
-379 -384 0
-379 -385 0
-380 -381 0
-380 -382 0
-380 -383 0
-380 -384 0
-380 -385 0
-381 -382 0
-381 -383 0
-381 -384 0
-381 -385 0
-382 -383 0
-382 -384 0
-382 -385 0
-383 -384 0
-383 -385 0
-384 -385 0
-386 -387 0
-386 -388 0
-386 -389 0
-386 -390 0
-386 -391 0
-386 -392 0
-386 -393 0
-386 -394 0
-386 -395 0
-386 -396 0
-387 -388 0
-387 -389 0
-387 -390 0
-387 -391 0
-387 -392 0
-387 -393 0
-387 -394 0
-387 -395 0
-387 -396 0
-388 -389 0
-388 -390 0
-388 -391 0
-388 -392 0
-388 -393 0
-388 -394 0
-388 -395 0
-388 -396 0
-389 -390 0
-389 -391 0
-389 -392 0
-389 -393 0
-389 -394 0
-389 -395 0
-389 -396 0
-390 -391 0
-390 -392 0
-390 -393 0
-390 -394 0
-390 -395 0
-390 -396 0
-391 -392 0
-391 -393 0
-391 -394 0
-391 -395 0
-391 -396 0
-392 -393 0
-392 -394 0
-392 -395 0
-392 -396 0
-393 -394 0
-393 -395 0
-393 -396 0
-394 -395 0
-394 -396 0
-395 -396 0
-397 -398 0
-397 -399 0
-397 -400 0
-397 -401 0
-397 -402 0
-397 -403 0
-397 -404 0
-397 -405 0
-397 -406 0
-397 -407 0
-398 -399 0
-398 -400 0
-398 -401 0
-398 -402 0
-398 -403 0
-398 -404 0
-398 -405 0
-398 -406 0
-398 -407 0
-399 -400 0
-399 -401 0
-399 -402 0
-399 -403 0
-399 -404 0
-399 -405 0
-399 -406 0
-399 -407 0
-400 -401 0
-400 -402 0
-400 -403 0
-400 -404 0
-400 -405 0
-400 -406 0
-400 -407 0
-401 -402 0
-401 -403 0
-401 -404 0
-401 -405 0
-401 -406 0
-401 -407 0
-402 -403 0
-402 -404 0
-402 -405 0
-402 -406 0
-402 -407 0
-403 -404 0
-403 -405 0
-403 -406 0
-403 -407 0
-404 -405 0
-404 -406 0
-404 -407 0
-405 -406 0
-405 -407 0
-406 -407 0
-408 -409 0
-408 -410 0
-408 -411 0
-408 -412 0
-408 -413 0
-408 -414 0
-408 -415 0
-408 -416 0
-408 -417 0
-408 -418 0
-409 -410 0
-409 -411 0
-409 -412 0
-409 -413 0
-409 -414 0
-409 -415 0
-409 -416 0
-409 -417 0
-409 -418 0
-410 -411 0
-410 -412 0
-410 -413 0
-410 -414 0
-410 -415 0
-410 -416 0
-410 -417 0
-410 -418 0
-411 -412 0
-411 -413 0
-411 -414 0
-411 -415 0
-411 -416 0
-411 -417 0
-411 -418 0
-412 -413 0
-412 -414 0
-412 -415 0
-412 -416 0
-412 -417 0
-412 -418 0
-413 -414 0
-413 -415 0
-413 -416 0
-413 -417 0
-413 -418 0
-414 -415 0
-414 -416 0
-414 -417 0
-414 -418 0
-415 -416 0
-415 -417 0
-415 -418 0
-416 -417 0
-416 -418 0
-417 -418 0
-419 -420 0
-419 -421 0
-419 -422 0
-419 -423 0
-419 -424 0
-419 -425 0
-419 -426 0
-419 -427 0
-419 -428 0
-419 -429 0
-420 -421 0
-420 -422 0
-420 -423 0
-420 -424 0
-420 -425 0
-420 -426 0
-420 -427 0
-420 -428 0
-420 -429 0
-421 -422 0
-421 -423 0
-421 -424 0
-421 -425 0
-421 -426 0
-421 -427 0
-421 -428 0
-421 -429 0
-422 -423 0
-422 -424 0
-422 -425 0
-422 -426 0
-422 -427 0
-422 -428 0
-422 -429 0
-423 -424 0
-423 -425 0
-423 -426 0
-423 -427 0
-423 -428 0
-423 -429 0
-424 -425 0
-424 -426 0
-424 -427 0
-424 -428 0
-424 -429 0
-425 -426 0
-425 -427 0
-425 -428 0
-425 -429 0
-426 -427 0
-426 -428 0
-426 -429 0
-427 -428 0
-427 -429 0
-428 -429 0
-430 -431 0
-430 -432 0
-430 -433 0
-430 -434 0
-430 -435 0
-430 -436 0
-430 -437 0
-430 -438 0
-430 -439 0
-430 -440 0
-431 -432 0
-431 -433 0
-431 -434 0
-431 -435 0
-431 -436 0
-431 -437 0
-431 -438 0
-431 -439 0
-431 -440 0
-432 -433 0
-432 -434 0
-432 -435 0
-432 -436 0
-432 -437 0
-432 -438 0
-432 -439 0
-432 -440 0
-433 -434 0
-433 -435 0
-433 -436 0
-433 -437 0
-433 -438 0
-433 -439 0
-433 -440 0
-434 -435 0
-434 -436 0
-434 -437 0
-434 -438 0
-434 -439 0
-434 -440 0
-435 -436 0
-435 -437 0
-435 -438 0
-435 -439 0
-435 -440 0
-436 -437 0
-436 -438 0
-436 -439 0
-436 -440 0
-437 -438 0
-437 -439 0
-437 -440 0
-438 -439 0
-438 -440 0
-439 -440 0
-1 -56 0
-2 -57 0
-3 -58 0
-4 -59 0
-5 -60 0
-6 -61 0
-7 -62 0
-8 -63 0
-9 -64 0
-10 -65 0
-11 -66 0
-12 -67 0
-13 -68 0
-14 -69 0
-15 -70 0
-16 -71 0
-17 -72 0
-18 -73 0
-19 -74 0
-20 -75 0
-21 -76 0
-22 -77 0
-12 -155 0
-13 -156 0
-14 -157 0
-15 -158 0
-16 -159 0
-17 -160 0
-18 -161 0
-19 -162 0
-20 -163 0
-21 -164 0
-22 -165 0
-12 -199 0
-13 -200 0
-14 -201 0
-15 -202 0
-16 -203 0
-17 -204 0
-18 -205 0
-19 -206 0
-20 -207 0
-21 -208 0
-22 -209 0
-12 -309 0
-13 -310 0
-14 -311 0
-15 -312 0
-16 -313 0
-17 -314 0
-18 -315 0
-19 -316 0
-20 -317 0
-21 -318 0
-22 -319 0
-12 -364 0
-13 -365 0
-14 -366 0
-15 -367 0
-16 -368 0
-17 -369 0
-18 -370 0
-19 -371 0
-20 -372 0
-21 -373 0
-22 -374 0
-23 -89 0
-24 -90 0
-25 -91 0
-26 -92 0
-27 -93 0
-28 -94 0
-29 -95 0
-30 -96 0
-31 -97 0
-32 -98 0
-33 -99 0
-23 -122 0
-24 -123 0
-25 -124 0
-26 -125 0
-27 -126 0
-28 -127 0
-29 -128 0
-30 -129 0
-31 -130 0
-32 -131 0
-33 -132 0
-23 -155 0
-24 -156 0
-25 -157 0
-26 -158 0
-27 -159 0
-28 -160 0
-29 -161 0
-30 -162 0
-31 -163 0
-32 -164 0
-33 -165 0
-23 -232 0
-24 -233 0
-25 -234 0
-26 -235 0
-27 -236 0
-28 -237 0
-29 -238 0
-30 -239 0
-31 -240 0
-32 -241 0
-33 -242 0
-23 -342 0
-24 -343 0
-25 -344 0
-26 -345 0
-27 -346 0
-28 -347 0
-29 -348 0
-30 -349 0
-31 -350 0
-32 -351 0
-33 -352 0
-34 -56 0
-35 -57 0
-36 -58 0
-37 -59 0
-38 -60 0
-39 -61 0
-40 -62 0
-41 -63 0
-42 -64 0
-43 -65 0
-44 -66 0
-34 -89 0
-35 -90 0
-36 -91 0
-37 -92 0
-38 -93 0
-39 -94 0
-40 -95 0
-41 -96 0
-42 -97 0
-43 -98 0
-44 -99 0
-34 -221 0
-35 -222 0
-36 -223 0
-37 -224 0
-38 -225 0
-39 -226 0
-40 -227 0
-41 -228 0
-42 -229 0
-43 -230 0
-44 -231 0
-34 -309 0
-35 -310 0
-36 -311 0
-37 -312 0
-38 -313 0
-39 -314 0
-40 -315 0
-41 -316 0
-42 -317 0
-43 -318 0
-44 -319 0
-45 -56 0
-46 -57 0
-47 -58 0
-48 -59 0
-49 -60 0
-50 -61 0
-51 -62 0
-52 -63 0
-53 -64 0
-54 -65 0
-55 -66 0
-45 -67 0
-46 -68 0
-47 -69 0
-48 -70 0
-49 -71 0
-50 -72 0
-51 -73 0
-52 -74 0
-53 -75 0
-54 -76 0
-55 -77 0
-45 -364 0
-46 -365 0
-47 -366 0
-48 -367 0
-49 -368 0
-50 -369 0
-51 -370 0
-52 -371 0
-53 -372 0
-54 -373 0
-55 -374 0
-56 -133 0
-57 -134 0
-58 -135 0
-59 -136 0
-60 -137 0
-61 -138 0
-62 -139 0
-63 -140 0
-64 -141 0
-65 -142 0
-66 -143 0
-56 -155 0
-57 -156 0
-58 -157 0
-59 -158 0
-60 -159 0
-61 -160 0
-62 -161 0
-63 -162 0
-64 -163 0
-65 -164 0
-66 -165 0
-56 -276 0
-57 -277 0
-58 -278 0
-59 -279 0
-60 -280 0
-61 -281 0
-62 -282 0
-63 -283 0
-64 -284 0
-65 -285 0
-66 -286 0
-56 -309 0
-57 -310 0
-58 -311 0
-59 -312 0
-60 -313 0
-61 -314 0
-62 -315 0
-63 -316 0
-64 -317 0
-65 -318 0
-66 -319 0
-56 -331 0
-57 -332 0
-58 -333 0
-59 -334 0
-60 -335 0
-61 -336 0
-62 -337 0
-63 -338 0
-64 -339 0
-65 -340 0
-66 -341 0
-67 -89 0
-68 -90 0
-69 -91 0
-70 -92 0
-71 -93 0
-72 -94 0
-73 -95 0
-74 -96 0
-75 -97 0
-76 -98 0
-77 -99 0
-67 -122 0
-68 -123 0
-69 -124 0
-70 -125 0
-71 -126 0
-72 -127 0
-73 -128 0
-74 -129 0
-75 -130 0
-76 -131 0
-77 -132 0
-67 -166 0
-68 -167 0
-69 -168 0
-70 -169 0
-71 -170 0
-72 -171 0
-73 -172 0
-74 -173 0
-75 -174 0
-76 -175 0
-77 -176 0
-67 -243 0
-68 -244 0
-69 -245 0
-70 -246 0
-71 -247 0
-72 -248 0
-73 -249 0
-74 -250 0
-75 -251 0
-76 -252 0
-77 -253 0
-67 -309 0
-68 -310 0
-69 -311 0
-70 -312 0
-71 -313 0
-72 -314 0
-73 -315 0
-74 -316 0
-75 -317 0
-76 -318 0
-77 -319 0
-67 -364 0
-68 -365 0
-69 -366 0
-70 -367 0
-71 -368 0
-72 -369 0
-73 -370 0
-74 -371 0
-75 -372 0
-76 -373 0
-77 -374 0
-67 -430 0
-68 -431 0
-69 -432 0
-70 -433 0
-71 -434 0
-72 -435 0
-73 -436 0
-74 -437 0
-75 -438 0
-76 -439 0
-77 -440 0
-78 -89 0
-79 -90 0
-80 -91 0
-81 -92 0
-82 -93 0
-83 -94 0
-84 -95 0
-85 -96 0
-86 -97 0
-87 -98 0
-88 -99 0
-78 -155 0
-79 -156 0
-80 -157 0
-81 -158 0
-82 -159 0
-83 -160 0
-84 -161 0
-85 -162 0
-86 -163 0
-87 -164 0
-88 -165 0
-78 -166 0
-79 -167 0
-80 -168 0
-81 -169 0
-82 -170 0
-83 -171 0
-84 -172 0
-85 -173 0
-86 -174 0
-87 -175 0
-88 -176 0
-78 -375 0
-79 -376 0
-80 -377 0
-81 -378 0
-82 -379 0
-83 -380 0
-84 -381 0
-85 -382 0
-86 -383 0
-87 -384 0
-88 -385 0
-89 -265 0
-90 -266 0
-91 -267 0
-92 -268 0
-93 -269 0
-94 -270 0
-95 -271 0
-96 -272 0
-97 -273 0
-98 -274 0
-99 -275 0
-89 -309 0
-90 -310 0
-91 -311 0
-92 -312 0
-93 -313 0
-94 -314 0
-95 -315 0
-96 -316 0
-97 -317 0
-98 -318 0
-99 -319 0
-100 -287 0
-101 -288 0
-102 -289 0
-103 -290 0
-104 -291 0
-105 -292 0
-106 -293 0
-107 -294 0
-108 -295 0
-109 -296 0
-110 -297 0
-111 -133 0
-112 -134 0
-113 -135 0
-114 -136 0
-115 -137 0
-116 -138 0
-117 -139 0
-118 -140 0
-119 -141 0
-120 -142 0
-121 -143 0
-111 -188 0
-112 -189 0
-113 -190 0
-114 -191 0
-115 -192 0
-116 -193 0
-117 -194 0
-118 -195 0
-119 -196 0
-120 -197 0
-121 -198 0
-122 -221 0
-123 -222 0
-124 -223 0
-125 -224 0
-126 -225 0
-127 -226 0
-128 -227 0
-129 -228 0
-130 -229 0
-131 -230 0
-132 -231 0
-122 -287 0
-123 -288 0
-124 -289 0
-125 -290 0
-126 -291 0
-127 -292 0
-128 -293 0
-129 -294 0
-130 -295 0
-131 -296 0
-132 -297 0
-122 -331 0
-123 -332 0
-124 -333 0
-125 -334 0
-126 -335 0
-127 -336 0
-128 -337 0
-129 -338 0
-130 -339 0
-131 -340 0
-132 -341 0
-122 -364 0
-123 -365 0
-124 -366 0
-125 -367 0
-126 -368 0
-127 -369 0
-128 -370 0
-129 -371 0
-130 -372 0
-131 -373 0
-132 -374 0
-133 -221 0
-134 -222 0
-135 -223 0
-136 -224 0
-137 -225 0
-138 -226 0
-139 -227 0
-140 -228 0
-141 -229 0
-142 -230 0
-143 -231 0
-144 -276 0
-145 -277 0
-146 -278 0
-147 -279 0
-148 -280 0
-149 -281 0
-150 -282 0
-151 -283 0
-152 -284 0
-153 -285 0
-154 -286 0
-155 -320 0
-156 -321 0
-157 -322 0
-158 -323 0
-159 -324 0
-160 -325 0
-161 -326 0
-162 -327 0
-163 -328 0
-164 -329 0
-165 -330 0
-155 -331 0
-156 -332 0
-157 -333 0
-158 -334 0
-159 -335 0
-160 -336 0
-161 -337 0
-162 -338 0
-163 -339 0
-164 -340 0
-165 -341 0
-166 -188 0
-167 -189 0
-168 -190 0
-169 -191 0
-170 -192 0
-171 -193 0
-172 -194 0
-173 -195 0
-174 -196 0
-175 -197 0
-176 -198 0
-166 -232 0
-167 -233 0
-168 -234 0
-169 -235 0
-170 -236 0
-171 -237 0
-172 -238 0
-173 -239 0
-174 -240 0
-175 -241 0
-176 -242 0
-166 -254 0
-167 -255 0
-168 -256 0
-169 -257 0
-170 -258 0
-171 -259 0
-172 -260 0
-173 -261 0
-174 -262 0
-175 -263 0
-176 -264 0
-166 -364 0
-167 -365 0
-168 -366 0
-169 -367 0
-170 -368 0
-171 -369 0
-172 -370 0
-173 -371 0
-174 -372 0
-175 -373 0
-176 -374 0
-177 -210 0
-178 -211 0
-179 -212 0
-180 -213 0
-181 -214 0
-182 -215 0
-183 -216 0
-184 -217 0
-185 -218 0
-186 -219 0
-187 -220 0
-177 -232 0
-178 -233 0
-179 -234 0
-180 -235 0
-181 -236 0
-182 -237 0
-183 -238 0
-184 -239 0
-185 -240 0
-186 -241 0
-187 -242 0
-177 -298 0
-178 -299 0
-179 -300 0
-180 -301 0
-181 -302 0
-182 -303 0
-183 -304 0
-184 -305 0
-185 -306 0
-186 -307 0
-187 -308 0
-177 -386 0
-178 -387 0
-179 -388 0
-180 -389 0
-181 -390 0
-182 -391 0
-183 -392 0
-184 -393 0
-185 -394 0
-186 -395 0
-187 -396 0
-177 -419 0
-178 -420 0
-179 -421 0
-180 -422 0
-181 -423 0
-182 -424 0
-183 -425 0
-184 -426 0
-185 -427 0
-186 -428 0
-187 -429 0
-188 -386 0
-189 -387 0
-190 -388 0
-191 -389 0
-192 -390 0
-193 -391 0
-194 -392 0
-195 -393 0
-196 -394 0
-197 -395 0
-198 -396 0
-188 -408 0
-189 -409 0
-190 -410 0
-191 -411 0
-192 -412 0
-193 -413 0
-194 -414 0
-195 -415 0
-196 -416 0
-197 -417 0
-198 -418 0
-199 -298 0
-200 -299 0
-201 -300 0
-202 -301 0
-203 -302 0
-204 -303 0
-205 -304 0
-206 -305 0
-207 -306 0
-208 -307 0
-209 -308 0
-199 -320 0
-200 -321 0
-201 -322 0
-202 -323 0
-203 -324 0
-204 -325 0
-205 -326 0
-206 -327 0
-207 -328 0
-208 -329 0
-209 -330 0
-199 -386 0
-200 -387 0
-201 -388 0
-202 -389 0
-203 -390 0
-204 -391 0
-205 -392 0
-206 -393 0
-207 -394 0
-208 -395 0
-209 -396 0
-199 -430 0
-200 -431 0
-201 -432 0
-202 -433 0
-203 -434 0
-204 -435 0
-205 -436 0
-206 -437 0
-207 -438 0
-208 -439 0
-209 -440 0
-210 -320 0
-211 -321 0
-212 -322 0
-213 -323 0
-214 -324 0
-215 -325 0
-216 -326 0
-217 -327 0
-218 -328 0
-219 -329 0
-220 -330 0
-210 -386 0
-211 -387 0
-212 -388 0
-213 -389 0
-214 -390 0
-215 -391 0
-216 -392 0
-217 -393 0
-218 -394 0
-219 -395 0
-220 -396 0
-221 -309 0
-222 -310 0
-223 -311 0
-224 -312 0
-225 -313 0
-226 -314 0
-227 -315 0
-228 -316 0
-229 -317 0
-230 -318 0
-231 -319 0
-243 -254 0
-244 -255 0
-245 -256 0
-246 -257 0
-247 -258 0
-248 -259 0
-249 -260 0
-250 -261 0
-251 -262 0
-252 -263 0
-253 -264 0
-254 -265 0
-255 -266 0
-256 -267 0
-257 -268 0
-258 -269 0
-259 -270 0
-260 -271 0
-261 -272 0
-262 -273 0
-263 -274 0
-264 -275 0
-254 -375 0
-255 -376 0
-256 -377 0
-257 -378 0
-258 -379 0
-259 -380 0
-260 -381 0
-261 -382 0
-262 -383 0
-263 -384 0
-264 -385 0
-265 -386 0
-266 -387 0
-267 -388 0
-268 -389 0
-269 -390 0
-270 -391 0
-271 -392 0
-272 -393 0
-273 -394 0
-274 -395 0
-275 -396 0
-287 -298 0
-288 -299 0
-289 -300 0
-290 -301 0
-291 -302 0
-292 -303 0
-293 -304 0
-294 -305 0
-295 -306 0
-296 -307 0
-297 -308 0
-298 -364 0
-299 -365 0
-300 -366 0
-301 -367 0
-302 -368 0
-303 -369 0
-304 -370 0
-305 -371 0
-306 -372 0
-307 -373 0
-308 -374 0
-309 -320 0
-310 -321 0
-311 -322 0
-312 -323 0
-313 -324 0
-314 -325 0
-315 -326 0
-316 -327 0
-317 -328 0
-318 -329 0
-319 -330 0
-309 -408 0
-310 -409 0
-311 -410 0
-312 -411 0
-313 -412 0
-314 -413 0
-315 -414 0
-316 -415 0
-317 -416 0
-318 -417 0
-319 -418 0
-320 -408 0
-321 -409 0
-322 -410 0
-323 -411 0
-324 -412 0
-325 -413 0
-326 -414 0
-327 -415 0
-328 -416 0
-329 -417 0
-330 -418 0
-342 -353 0
-343 -354 0
-344 -355 0
-345 -356 0
-346 -357 0
-347 -358 0
-348 -359 0
-349 -360 0
-350 -361 0
-351 -362 0
-352 -363 0
-353 -364 0
-354 -365 0
-355 -366 0
-356 -367 0
-357 -368 0
-358 -369 0
-359 -370 0
-360 -371 0
-361 -372 0
-362 -373 0
-363 -374 0
-353 -430 0
-354 -431 0
-355 -432 0
-356 -433 0
-357 -434 0
-358 -435 0
-359 -436 0
-360 -437 0
-361 -438 0
-362 -439 0
-363 -440 0
-375 -419 0
-376 -420 0
-377 -421 0
-378 -422 0
-379 -423 0
-380 -424 0
-381 -425 0
-382 -426 0
-383 -427 0
-384 -428 0
-385 -429 0
